
Gurobi 7.0.2 (linux64, Matlab) logging started Sun Sep  2 08:55:42 2018


Gurobi 7.0.2 (linux64) logging started Sun Sep  2 08:55:42 2018

Optimize a model with 9642 rows, 8887 columns and 54484 nonzeros
Coefficient statistics:
  Matrix range     [1e+00, 1e+00]
  Objective range  [1e+00, 1e+03]
  Bounds range     [1e+00, 1e+00]
  RHS range        [1e+00, 1e+01]
Iteration    Objective       Primal Inf.    Dual Inf.      Time
       0    2.7600000e+02   0.000000e+00   0.000000e+00      0s

Solved in 0 iterations and 0.01 seconds
Optimal objective  2.760000000e+02
